p cnf 18 22
1 3 5 7 12 -16 -14 -10 -6 -4 -2 0
17 -5 -10 0
-16 -14 11 15 0
9 2 -1 0
-5 6 15 0
1 5 7 11 12 13 16 -14 -6 -2 0
-7 -14 13 0
-7 11 -1 15 0
5 7 11 16 -15 -10 -6 -4 -1 0
1 5 7 13 -18 -15 -14 -8 -6 -2 0
1 3 5 7 13 -15 -10 -8 -4 -2 0
1 3 5 7 17 -14 -10 -9 -6 -4 0
9 -12 15 0
1 3 7 13 18 -8 -4 -2 0
11 -12 -13 0
4 -10 0
-7 -10 0
-16 17 -18 0
-3 0
7 11 12 13 -14 -8 -6 0
17 -14 4 0
8 9 -17 0
